param chix: 1 2 3 4 :=
1 0.500000 0.707107 0.500000 0.000000 
2 0.000000 0.000000 0.000000 0.000000 
3 -0.500000 -0.707107 -0.500000 -0.000000 
4 -0.707107 -1.000000 -0.707107 -0.000000 
5 -0.500000 -0.707107 -0.500000 -0.000000 
6 -0.000000 -0.000000 -0.000000 -0.000000 
7 0.500000 0.707107 0.500000 0.000000 
8 0.707107 1.000000 0.707107 0.000000 ;
